50
1 0 17
2 0 20
2 1 16
3 0 5
3 1 19
3 2 7
4 0 11
4 1 20
4 2 7
4 3 7
5 0 15
5 1 8
5 2 11
5 3 8
5 4 3
6 0 7
6 1 4
6 2 9
6 3 7
6 4 5
7 0 15
7 1 18
7 2 20
7 4 16
7 6 18
8 0 15
8 1 6
8 2 4
8 4 17
8 5 15
8 6 4
8 7 11
9 0 15
9 1 11
9 3 9
9 5 7
9 7 19
10 1 13
10 2 1
10 5 15
10 6 15
10 9 1
11 2 14
11 5 20
11 7 10
11 9 2
11 10 13
12 0 13
12 6 18
12 7 12
12 9 7
12 10 13
12 11 7
13 0 1
13 1 1
13 3 2
13 5 17
13 7 18
13 8 12
13 9 15
13 10 12
13 11 12
13 12 4
14 0 7
14 1 19
14 2 18
14 5 4
14 6 18
14 7 4
14 8 19
14 9 2
14 10 11
14 11 14
14 13 2
15 0 4
15 1 11
15 2 4
15 5 7
15 6 8
15 8 15
15 10 18
15 11 13
15 12 10
15 14 11
16 1 6
16 2 16
16 3 16
16 4 7
16 5 1
16 6 20
16 7 20
16 8 1
16 9 7
16 14 2
17 0 12
17 1 17
17 2 14
17 3 10
17 4 15
17 6 10
17 8 11
17 11 14
17 12 9
17 13 15
17 14 16
17 15 11
17 16 19
18 0 16
18 1 19
18 2 9
18 3 5
18 4 18
18 6 16
18 7 2
18 8 20
18 9 1
18 10 11
18 12 10
18 14 10
18 15 14
18 16 13
18 17 14
19 0 15
19 2 10
19 3 2
19 5 13
19 6 10
19 8 20
19 9 7
19 10 20
19 11 14
19 12 13
19 13 4
19 18 9
20 0 15
20 2 1
20 3 13
20 4 14
20 5 7
20 6 11
20 7 17
20 9 10
20 10 14
20 11 7
20 12 18
20 13 17
20 14 6
20 15 10
20 16 15
20 17 5
20 18 9
21 0 18
21 1 17
21 2 12
21 5 11
21 7 7
21 8 6
21 9 2
21 10 12
21 11 15
21 12 19
21 14 1
21 15 8
21 16 15
21 18 14
21 20 18
22 0 17
22 4 6
22 5 20
22 6 14
22 7 3
22 9 9
22 11 20
22 13 17
22 15 3
22 16 1
22 18 7
22 19 16
22 20 13
22 21 10
23 1 1
23 2 8
23 3 1
23 4 4
23 5 11
23 6 10
23 7 7
23 8 8
23 9 11
23 10 1
23 11 12
23 12 17
23 13 11
23 14 17
23 15 14
23 16 5
23 17 3
23 18 16
23 19 18
23 21 6
23 22 6
24 1 20
24 2 9
24 5 14
24 6 10
24 7 6
24 8 13
24 9 9
24 10 5
24 11 4
24 12 20
24 13 13
24 14 11
24 15 7
24 17 8
24 18 13
24 20 17
24 21 4
24 22 11
24 23 9
25 1 20
25 2 17
25 3 10
25 5 10
25 6 19
25 8 12
25 9 16
25 10 19
25 14 17
25 15 13
25 16 5
25 17 12
25 19 18
25 20 11
25 21 12
25 22 13
25 23 15
25 24 10
26 0 9
26 3 18
26 4 13
26 5 20
26 6 5
26 7 18
26 9 3
26 10 5
26 12 9
26 14 15
26 15 2
26 18 3
26 20 2
26 21 17
26 22 5
26 24 18
27 0 13
27 1 2
27 2 14
27 3 4
27 4 10
27 5 9
27 8 4
27 10 1
27 11 8
27 12 3
27 16 10
27 21 1
27 23 16
27 25 9
28 0 4
28 4 4
28 5 3
28 6 7
28 7 7
28 8 14
28 11 15
28 12 11
28 13 20
28 15 18
28 17 15
28 18 3
28 19 16
28 20 10
28 26 20
29 0 18
29 2 18
29 5 8
29 6 16
29 8 8
29 9 7
29 12 18
29 13 14
29 15 4
29 18 19
29 21 11
29 23 20
29 24 7
29 25 1
29 26 1
29 27 9
29 28 11
30 1 3
30 2 13
30 4 9
30 5 4
30 6 7
30 7 6
30 9 6
30 10 2
30 11 10
30 12 8
30 15 20
30 16 9
30 18 15
30 21 14
30 23 10
30 25 18
30 27 6
30 29 18
31 0 17
31 1 19
31 2 4
31 4 9
31 6 10
31 7 2
31 9 4
31 11 18
31 13 19
31 14 6
31 16 3
31 17 19
31 18 16
31 19 18
31 20 14
31 21 4
31 22 4
31 25 2
31 27 10
31 28 6
31 29 4
31 30 7
32 5 19
32 7 8
32 8 19
32 9 4
32 11 15
32 12 3
32 14 10
32 15 15
32 16 2
32 17 17
32 18 7
32 19 7
32 20 11
32 23 11
32 25 5
32 26 13
32 27 5
32 28 19
32 29 14
32 30 2
33 0 11
33 1 18
33 2 11
33 4 13
33 5 20
33 9 3
33 10 4
33 12 1
33 13 19
33 15 3
33 16 5
33 17 18
33 18 9
33 19 13
33 22 16
33 23 19
33 24 18
33 26 16
33 27 13
33 28 18
33 31 5
34 0 15
34 3 18
34 4 17
34 5 1
34 7 18
34 8 17
34 9 4
34 11 3
34 12 12
34 13 4
34 14 11
34 15 18
34 17 19
34 21 9
34 22 15
34 23 12
34 24 20
34 26 1
34 27 7
34 28 15
34 29 18
34 31 9
34 32 2
35 0 19
35 2 13
35 4 19
35 5 7
35 7 2
35 9 11
35 10 19
35 11 2
35 12 4
35 13 3
35 14 15
35 18 13
35 20 6
35 21 11
35 24 10
35 25 16
35 26 2
35 28 20
35 29 17
35 31 16
35 33 19
35 34 6
36 0 10
36 1 7
36 2 11
36 3 14
36 6 3
36 8 17
36 9 18
36 10 15
36 11 3
36 14 1
36 16 12
36 17 6
36 18 15
36 19 5
36 20 8
36 22 16
36 24 9
36 29 9
36 30 4
36 31 11
36 32 12
36 33 14
36 34 20
36 35 7
37 0 20
37 1 20
37 3 10
37 5 16
37 8 2
37 9 9
37 11 14
37 12 16
37 13 8
37 18 18
37 19 11
37 20 10
37 21 8
37 22 14
37 23 3
37 24 19
37 25 9
37 26 18
37 27 9
37 28 7
37 29 13
37 32 7
37 33 4
37 34 17
38 0 18
38 1 18
38 4 2
38 5 17
38 6 10
38 7 11
38 11 9
38 12 10
38 14 6
38 16 1
38 19 6
38 20 4
38 22 16
38 23 1
38 24 7
38 26 18
38 27 12
38 30 1
38 32 1
38 34 2
38 35 1
38 36 6
38 37 15
39 1 7
39 2 10
39 3 12
39 4 11
39 6 13
39 10 10
39 11 16
39 13 12
39 14 4
39 15 11
39 18 15
39 19 10
39 20 20
39 23 3
39 24 4
39 27 12
39 28 19
39 29 18
39 30 3
39 31 3
39 32 6
39 33 10
39 34 20
39 35 2
39 37 7
40 0 13
40 2 17
40 3 20
40 4 12
40 5 14
40 6 11
40 7 19
40 9 19
40 10 20
40 11 20
40 12 9
40 13 4
40 15 13
40 17 20
40 18 16
40 21 11
40 22 12
40 23 7
40 24 10
40 25 19
40 26 2
40 28 10
40 29 8
40 31 14
40 33 14
40 35 16
40 36 2
40 38 10
40 39 5
41 5 1
41 6 3
41 9 8
41 10 14
41 11 7
41 12 16
41 14 7
41 16 2
41 17 20
41 18 18
41 19 6
41 20 2
41 21 8
41 22 19
41 26 12
41 27 11
41 28 11
41 29 6
41 30 12
41 31 7
41 32 10
41 33 6
41 34 3
41 36 17
41 37 5
41 38 13
41 39 15
42 0 7
42 2 13
42 5 12
42 6 9
42 7 10
42 8 14
42 10 4
42 12 14
42 13 2
42 14 15
42 15 10
42 18 14
42 19 6
42 21 17
42 22 15
42 26 4
42 28 14
42 29 12
42 30 1
42 33 1
42 34 13
42 36 11
42 39 10
42 40 5
42 41 16
43 1 11
43 3 4
43 4 6
43 5 5
43 6 4
43 7 17
43 8 19
43 9 18
43 10 11
43 11 7
43 12 5
43 13 17
43 14 13
43 15 9
43 16 10
43 20 4
43 22 18
43 23 14
43 24 6
43 25 7
43 27 3
43 29 11
43 32 3
43 33 4
43 34 13
43 37 20
43 38 1
43 39 8
43 40 20
43 41 4
43 42 14
44 1 3
44 5 16
44 6 2
44 7 4
44 9 9
44 11 3
44 12 11
44 13 14
44 15 3
44 16 4
44 17 17
44 18 11
44 19 19
44 20 13
44 21 3
44 22 15
44 24 8
44 26 4
44 27 13
44 28 4
44 29 18
44 30 6
44 31 5
44 32 10
44 33 17
44 35 12
44 36 7
44 37 6
44 39 6
44 40 6
44 42 7
44 43 15
45 1 2
45 2 6
45 3 1
45 4 11
45 6 18
45 7 3
45 8 11
45 9 13
45 13 1
45 14 11
45 15 19
45 17 6
45 18 10
45 19 12
45 20 17
45 21 11
45 22 10
45 24 6
45 25 14
45 26 3
45 27 9
45 28 15
45 29 20
45 31 12
45 32 8
45 33 13
45 34 13
45 35 4
45 37 6
45 38 17
45 39 13
45 41 16
45 42 16
45 43 11
46 1 18
46 2 20
46 3 4
46 4 14
46 5 2
46 7 3
46 8 20
46 10 4
46 11 12
46 12 10
46 13 11
46 16 7
46 17 6
46 18 19
46 19 19
46 20 3
46 21 12
46 22 18
46 23 5
46 24 9
46 25 12
46 26 20
46 27 4
46 28 3
46 29 19
46 30 20
46 31 13
46 32 11
46 34 10
46 37 1
46 39 10
46 40 13
46 41 16
46 43 14
46 44 3
47 1 20
47 2 6
47 3 1
47 4 20
47 6 2
47 7 6
47 8 9
47 9 16
47 10 15
47 11 5
47 13 3
47 14 1
47 15 15
47 17 14
47 18 18
47 20 15
47 21 5
47 23 16
47 24 15
47 26 2
47 27 19
47 31 4
47 32 19
47 33 19
47 35 14
47 36 2
47 37 20
47 38 20
47 39 17
47 40 1
47 42 15
47 43 4
47 45 9
48 1 10
48 2 4
48 3 8
48 5 4
48 6 1
48 7 10
48 8 7
48 9 11
48 10 13
48 12 14
48 13 8
48 14 15
48 15 17
48 16 10
48 18 9
48 19 6
48 22 8
48 23 4
48 29 3
48 30 14
48 32 11
48 33 9
48 34 10
48 35 12
48 36 2
48 38 20
48 42 11
48 44 17
48 46 2
48 47 4
49 0 11
49 2 9
49 3 5
49 4 15
49 6 16
49 8 11
49 9 6
49 10 14
49 11 11
49 12 17
49 13 4
49 14 3
49 17 9
49 18 19
49 20 18
49 21 5
49 22 13
49 25 7
49 26 20
49 28 3
49 29 8
49 30 9
49 31 20
49 32 14
49 33 17
49 37 5
49 38 11
49 39 6
49 40 17
49 41 1
49 44 8
49 46 3
49 47 5
49 48 3
